letting n_nurses=25
letting n_days=7
letting n_shift_types=4
letting max_covers=10
letting t_covers=61
letting covers=[6,5,2,0,1,0,0,0,7,4,2,0,10,5,4,0,8,4,3,0,0,0,0,0,0,0,0,0]
letting prefes=[2,1,3,2,4,4,1,2,2,1,3,2,4,1,1,1,4,4,1,2,4,1,1,1,2,1,3,2,2,4,1,2,4,4,2,1,2,4,1,2,1,1,2,2,4,4,2,1,1,1,2,2,2,4,1,2,2,4,1,2,4,1,1,2,2,4,1,2,1,1,1,1,4,1,1,2,1,1,1,1,2,4,1,2,2,4,1,2,4,4,2,2,2,4,1,2,4,4,2,2,4,4,2,2,4,4,2,2,2,4,1,2,2,4,1,2,2,1,2,2,2,4,1,2,4,1,1,2,2,1,2,2,4,1,1,2,2,4,1,2,2,4,1,2,2,4,2,2,2,4,1,2,4,1,1,2,2,4,2,2,4,1,1,2,2,4,1,2,2,1,1,2,2,4,2,2,2,1,1,2,4,1,1,2,2,4,2,2,4,1,1,2,2,1,1,2,2,4,1,2,4,4,2,1,2,4,1,2,4,1,1,2,4,4,2,1,4,1,1,2,2,4,1,2,1,4,1,1,4,4,2,2,1,4,1,1,4,4,1,2,4,4,2,2,4,4,1,2,1,4,1,1,2,1,1,2,4,1,2,2,2,1,1,2,4,1,2,2,4,1,2,2,4,1,2,2,2,1,1,2,2,4,4,2,2,4,2,1,2,4,4,2,1,1,1,2,2,4,2,1,1,1,1,2,2,4,4,2,2,4,1,2,4,4,2,2,2,4,1,2,4,4,2,2,4,4,2,2,4,4,2,2,2,4,1,2,1,4,1,1,4,4,2,2,1,4,1,1,1,1,1,2,4,4,2,2,1,1,1,2,1,4,1,1,2,4,1,2,2,4,2,2,2,4,1,2,4,1,1,2,2,4,2,2,4,1,1,2,2,4,1,2,1,1,1,1,4,1,2,2,1,1,1,1,4,1,1,2,4,1,2,2,4,1,1,2,1,1,1,1,2,4,4,2,4,4,1,2,2,4,4,2,4,1,1,1,4,4,1,2,4,1,1,1,2,4,4,2,2,4,1,2,4,4,2,1,2,4,1,2,4,1,1,2,4,4,2,1,4,1,1,2,2,4,1,2,2,4,1,2,4,4,2,2,2,4,1,2,4,4,2,2,4,4,2,2,4,4,2,2,2,4,1,2,2,4,1,2,4,4,2,2,2,4,1,2,4,1,1,2,4,4,2,2,4,1,1,2,2,4,1,2,2,4,2,2,4,4,2,1,2,4,2,2,1,1,1,2,4,4,2,1,1,1,1,2,2,4,2,2,2,4,1,2,4,4,1,2,2,4,1,2,4,1,1,1,4,4,1,2,4,1,1,1,2,4,1,2,2,4,1,2,4,4,2,2,2,4,1,2,4,1,1,2,4,4,2,2,4,1,1,2,2,4,1,2,2,4,3,2,4,4,2,2,2,4,3,2,4,1,1,2,4,4,2,2,4,1,1,2,2,4,3,2,1,4,1,1,4,1,2,2,1,4,1,1,4,1,1,2,4,1,2,2,4,1,1,2,1,4,1,1,1,1,1,1,4,4,1,2,1,1,1,1,4,4,1,1,4,4,1,2,4,4,1,1,1,1,1,1]
letting ub =  247
